--- Command ---
python3 synplicate.py experiments/Iris3/ --solver=milp_solver_naive_old

--- Return Code: 0 ---

--- Standard Output (stdout) ---
Executing PAC procedure for ((0.05, 0.03))...
Extracting synthesis configuration... 
sepal_length:4:2,
petal_length:4:1,
petal_width:4:1
experiments/Iris3//
(3, {'sepal_length': 4, 'petal_length': 4, 'petal_width': 4}, {'sepal_length': 2, 'petal_length': 1, 'petal_width': 1}, {'species': 3}, {'sepal_length': <function sepal_length at 0x73926b818c10>, 'petal_length': <function petal_length at 0x73926b818dc0>, 'petal_width': <function petal_width at 0x73926b818d30>, 'species': <function species at 0x73926b818e50>}, False)
Using 25026 samples ...
--- Found cache file 'experiments/Iris3/sampler_cache.pkl'. Loading data. ---
Got 25026 samples ...
--- Head of Samples (first 5) ---
Sample 1: Features: (('sepal_length', 7.436262336408751), ('petal_length', 4.075312268971663), ('petal_width', 2.3305889004781233)) -> Label: [('species', 2)]
Sample 2: Features: (('sepal_length', 4.949067258541092), ('petal_length', 1.8636179659117733), ('petal_width', 0.8110989627302255)) -> Label: [('species', 0)]
Sample 3: Features: (('sepal_length', 5.670588809572429), ('petal_length', 1.5621591506408259), ('petal_width', 2.307721658211285)) -> Label: [('species', 0)]
Sample 4: Features: (('sepal_length', 7.7825364761930755), ('petal_length', 3.4400256884722658), ('petal_width', 2.07186514007313)) -> Label: [('species', 2)]
Sample 5: Features: (('sepal_length', 5.078293067091223), ('petal_length', 2.732425513181413), ('petal_width', 1.4065104011072889)) -> Label: [('species', 1)]
---------------------------------
=================================
 Exploring solution in region [0,100,0]
=================================
|---Estimated maximum explanation score: 9
Translating to dimacs...
Translating to wcnfdimacs...
|---Extracting soft variables...
|---Estimated maximum explanation score: 9
|---Extracting threshold variables...
|---Writing WCNF File...
Using MILP solver: milp_solver_naive_old
Set parameter WLSAccessID
Set parameter WLSSecret
Set parameter LicenseID to value 2713262
Academic license 2713262 - for non-commercial use only - registered to hi___@iitb.ac.in
Set parameter OutputFlag to value 1
Max Sat...
Gurobi Optimizer version 13.0.0 build v13.0.0rc1 (linux64 - "Zorin OS 17.3")

CPU model: 12th Gen Intel(R) Core(TM) i5-12450H, instruction set [SSE2|AVX|AVX2]
Thread count: 12 physical cores, 12 logical processors, using up to 12 threads

Academic license 2713262 - for non-commercial use only - registered to hi___@iitb.ac.in
Optimize a model with 9945 rows, 3439 columns and 23120 nonzeros (Min)
Model fingerprint: 0xdfa8a070
Model has 111 linear objective coefficients
Variable types: 0 continuous, 3439 integer (3439 binary)
Coefficient statistics:
  Matrix range     [1e+00, 1e+00]
  Objective range  [9e+00, 8e+03]
  Bounds range     [1e+00, 1e+00]
  RHS range        [1e+00, 2e+00]
Presolve removed 5767 rows and 2637 columns
Presolve time: 0.12s
Presolved: 4178 rows, 802 columns, 14453 nonzeros
Variable types: 0 continuous, 802 integer (802 binary)
Found heuristic solution: objective 39501.000000

Root relaxation: objective 3.442783e+04, 915 iterations, 0.02 seconds (0.05 work units)

    Nodes    |    Current Node    |     Objective Bounds      |     Work
 Expl Unexpl |  Obj  Depth IntInf | Incumbent    BestBd   Gap | It/Node Time

     0     0 34427.8333    0  607 39501.0000 34427.8333  12.8%     -    0s
H    0     0                    36738.000000 34427.8333  6.29%     -    0s
H    0     0                    36720.000000 34427.8333  6.24%     -    0s
H    0     0                    36693.000000 34427.8333  6.17%     -    0s
H    0     0                    36684.000000 34427.8333  6.15%     -    0s
     0     0 36664.5000    0  325 36684.0000 36664.5000  0.05%     -    0s
     0     0     cutoff    0      36684.0000 36684.0000  0.00%     -    0s

Cutting planes:
  Gomory: 25
  Implied bound: 25
  Clique: 21
  MIR: 7
  Zero half: 78
  RLT: 99
  Relax-and-lift: 5
  BQP: 4

Explored 1 nodes (1577 simplex iterations) in 0.30 seconds (0.43 work units)
Thread count was 12 (of 12 available processors)

Solution count 5: 36684 36693 36720 ... 39501

Optimal solution found (tolerance 1.00e-04)
Best objective 3.668400000000e+04, best bound 3.668400000000e+04, gap 0.0000%
Total cost:36684.0
['sepal_length', 'petal_length', 'petal_width']
SatSamples :10467
explainibilityReward: 22245
correctnessReward: 10467
experiments/Iris3//
Extracting program from witness...
(2,3) -> species_0
(2,2) -> species_0
(2,1) -> species_2
(2,0) -> species_1
(1,3) -> species_2
(1,2) -> species_0
(1,1) -> species_0
(1,0) -> species_0
(0,3) -> species_2
(0,2) -> species_2
(0,1) -> species_2
(0,0) -> species_2
0: sepal_length
Synthesized program: experiments/Iris3//program/program_ms_0_100_0_erm.py
Visualization: experiments/Iris3//program/program_ms_0_100_0_erm.dot
Synthesis time:10.223409796017222
Accuracy:0.41824502517381923 (10467/25026)
Explainability: 0.8888755694078159
Adding region (0,88,0.41824502517381923)
Adding region (88,100,0)
=================================
Pareto-optimal solutions: 
 [('experiments/Iris3//program/program_ms_0_100_0_erm.py', 0.41824502517381923, 0.8888755694078159)]


--- Standard Error (stderr) ---
